c description: Random 3-CNF over 21 variables and 89 clauses
c generator: CNFgen (0.9.2)
c copyright: (C) 2012-2022 Massimo Lauria <massimo.lauria@uniroma1.it>
c url: https://massimolauria.net/cnfgen
c command line: cnfgen --output CNF_4.28/21_bit_89_358.cnf randkcnf 3 21 89
c
p cnf 21 89
3 -17 20 0
-7 -14 19 0
-4 9 -20 0
1 -13 19 0
2 3 -13 0
1 -11 -20 0
-3 13 21 0
4 -10 11 0
-5 16 -20 0
3 -13 -20 0
5 -9 -17 0
-2 8 11 0
-5 8 -9 0
-9 -10 -12 0
2 -6 16 0
-10 -13 -17 0
5 11 -12 0
6 10 13 0
-13 17 -19 0
-6 7 -18 0
1 19 21 0
12 17 -20 0
-6 10 18 0
16 18 -19 0
1 5 -8 0
13 16 21 0
-9 12 18 0
-2 -8 -12 0
-4 6 -7 0
-2 10 -14 0
-11 -14 20 0
-8 -15 17 0
2 8 18 0
-1 10 -12 0
7 -15 18 0
-8 11 13 0
2 11 -20 0
3 -9 -18 0
3 -8 15 0
2 6 -11 0
-3 8 9 0
3 16 21 0
-7 -17 18 0
-2 3 7 0
7 15 -18 0
6 -7 -9 0
14 15 -17 0
-4 14 19 0
-6 10 -16 0
-1 -8 14 0
8 -20 21 0
-4 -12 17 0
-3 15 18 0
-3 -10 -18 0
6 9 -18 0
4 17 -19 0
1 -2 -17 0
-3 -13 17 0
10 -16 -17 0
8 15 20 0
-5 13 -17 0
14 18 -21 0
8 -11 17 0
3 7 -19 0
5 -8 13 0
11 16 -21 0
15 16 20 0
-10 -16 -20 0
4 5 -7 0
-7 -17 20 0
-2 12 13 0
1 9 15 0
4 -9 -20 0
-6 -12 19 0
-12 17 -21 0
-2 4 -7 0
10 -11 -21 0
9 -12 -15 0
-3 5 17 0
5 14 15 0
-2 15 18 0
14 15 21 0
-3 -7 -13 0
-3 16 20 0
10 16 -20 0
-5 20 21 0
-5 19 -20 0
-3 -9 10 0
14 16 17 0
